p cnf 731 2060
15 6 7 0
16 5 -15 0
17 4 -16 0
18 3 -17 0
19 2 -18 0
20 1 -19 0
-21 -2 0
-21 -3 0
21 2 3 0
-22 -4 0
-22 21 0
22 4 -21 0
-23 -5 0
-23 22 0
23 5 -22 0
-24 -6 0
-24 23 0
24 6 -23 0
-25 -7 0
-25 24 0
25 7 -24 0
-26 -1 0
-26 25 0
26 1 -25 0
-27 1 0
-27 -25 0
27 -1 25 0
-28 -26 0
-28 -27 0
28 26 27 0
-29 1 0
-29 28 0
29 -1 -28 0
-30 7 0
-30 -24 0
30 -7 24 0
-31 -25 0
-31 -30 0
31 25 30 0
-32 1 0
-32 31 0
32 -1 -31 0
-33 -1 0
-33 7 0
33 1 -7 0
-34 -32 0
-34 -33 0
34 32 33 0
-35 6 0
-35 -23 0
35 -6 23 0
-36 -24 0
-36 -35 0
36 24 35 0
-37 1 0
-37 36 0
37 -1 -36 0
-38 -1 0
-38 6 0
38 1 -6 0
-39 -37 0
-39 -38 0
39 37 38 0
-40 5 0
-40 -22 0
40 -5 22 0
-41 -23 0
-41 -40 0
41 23 40 0
-42 1 0
-42 41 0
42 -1 -41 0
-43 -1 0
-43 5 0
43 1 -5 0
-44 -42 0
-44 -43 0
44 42 43 0
-45 4 0
-45 -21 0
45 -4 21 0
-46 -22 0
-46 -45 0
46 22 45 0
-47 1 0
-47 46 0
47 -1 -46 0
-48 -1 0
-48 4 0
48 1 -4 0
-49 -47 0
-49 -48 0
49 47 48 0
-50 2 0
-50 3 0
50 -2 -3 0
-51 -21 0
-51 -50 0
51 21 50 0
-52 1 0
-52 51 0
52 -1 -51 0
-53 -1 0
-53 3 0
53 1 -3 0
-54 -52 0
-54 -53 0
54 52 53 0
-55 -8 0
-55 -14 0
55 8 14 0
-56 -13 0
-56 55 0
56 13 -55 0
-57 -12 0
-57 56 0
57 12 -56 0
-58 -11 0
-58 57 0
58 11 -57 0
-59 -10 0
-59 58 0
59 10 -58 0
-60 -9 0
-60 59 0
60 9 -59 0
-61 9 0
-61 -59 0
61 -9 59 0
-62 -60 0
-62 -61 0
62 60 61 0
-63 9 0
-63 62 0
63 -9 -62 0
-64 2 0
-64 -63 0
64 -2 63 0
-65 54 0
-65 -64 0
65 -54 64 0
-66 49 0
-66 65 0
66 -49 -65 0
-67 44 0
-67 66 0
67 -44 -66 0
-68 39 0
-68 67 0
68 -39 -67 0
-69 34 0
-69 68 0
69 -34 -68 0
-70 -29 0
-70 69 0
70 29 -69 0
-71 -54 0
-71 64 0
71 54 -64 0
-72 -65 0
-72 -71 0
72 65 71 0
-73 70 0
-73 72 0
73 -70 -72 0
-74 10 0
-74 -58 0
74 -10 58 0
-75 -59 0
-75 -74 0
75 59 74 0
-76 9 0
-76 75 0
76 -9 -75 0
-77 -9 0
-77 10 0
77 9 -10 0
-78 -76 0
-78 -77 0
78 76 77 0
-79 2 0
-79 78 0
79 -2 -78 0
-80 54 0
-80 -79 0
80 -54 79 0
-81 2 0
-81 70 0
81 -2 -70 0
-82 -63 0
-82 -81 0
82 63 81 0
-83 63 0
-83 81 0
83 -63 -81 0
-84 -82 0
-84 -83 0
84 82 83 0
-85 -54 0
-85 79 0
85 54 -79 0
-86 84 0
-86 -85 0
86 -84 85 0
-87 -80 0
-87 -86 0
87 80 86 0
-88 49 0
-88 -87 0
88 -49 87 0
-89 -49 0
-89 87 0
89 49 -87 0
-90 73 0
-90 -89 0
90 -73 89 0
-91 -88 0
-91 -90 0
91 88 90 0
-92 44 0
-92 -91 0
92 -44 91 0
-93 -49 0
-93 -65 0
93 49 65 0
-94 -66 0
-94 -93 0
94 66 93 0
-95 70 0
-95 94 0
95 -70 -94 0
-96 -44 0
-96 91 0
96 44 -91 0
-97 95 0
-97 -96 0
97 -95 96 0
-98 -92 0
-98 -97 0
98 92 97 0
-99 39 0
-99 -98 0
99 -39 98 0
-100 -44 0
-100 -66 0
100 44 66 0
-101 -67 0
-101 -100 0
101 67 100 0
-102 70 0
-102 101 0
102 -70 -101 0
-103 -39 0
-103 98 0
103 39 -98 0
-104 102 0
-104 -103 0
104 -102 103 0
-105 -99 0
-105 -104 0
105 99 104 0
-106 34 0
-106 -105 0
106 -34 105 0
-107 -39 0
-107 -67 0
107 39 67 0
-108 -68 0
-108 -107 0
108 68 107 0
-109 70 0
-109 108 0
109 -70 -108 0
-110 -34 0
-110 105 0
110 34 -105 0
-111 109 0
-111 -110 0
111 -109 110 0
-112 -106 0
-112 -111 0
112 106 111 0
-113 -29 0
-113 -112 0
113 29 112 0
-114 -88 0
-114 -89 0
114 88 89 0
-115 113 0
-115 114 0
115 -113 -114 0
-116 -73 0
-116 -115 0
116 73 115 0
-117 73 0
-117 115 0
117 -73 -115 0
-118 -116 0
-118 -117 0
118 116 117 0
-119 11 0
-119 -57 0
119 -11 57 0
-120 -58 0
-120 -119 0
120 58 119 0
-121 9 0
-121 120 0
121 -9 -120 0
-122 -9 0
-122 11 0
122 9 -11 0
-123 -121 0
-123 -122 0
123 121 122 0
-124 2 0
-124 123 0
124 -2 -123 0
-125 54 0
-125 -124 0
125 -54 124 0
-126 2 0
-126 113 0
126 -2 -113 0
-127 78 0
-127 -126 0
127 -78 126 0
-128 -78 0
-128 126 0
128 78 -126 0
-129 -127 0
-129 -128 0
129 127 128 0
-130 -54 0
-130 124 0
130 54 -124 0
-131 129 0
-131 -130 0
131 -129 130 0
-132 -125 0
-132 -131 0
132 125 131 0
-133 49 0
-133 -132 0
133 -49 132 0
-134 -80 0
-134 -85 0
134 80 85 0
-135 113 0
-135 134 0
135 -113 -134 0
-136 -84 0
-136 -135 0
136 84 135 0
-137 84 0
-137 135 0
137 -84 -135 0
-138 -136 0
-138 -137 0
138 136 137 0
-139 -49 0
-139 132 0
139 49 -132 0
-140 138 0
-140 -139 0
140 -138 139 0
-141 -133 0
-141 -140 0
141 133 140 0
-142 44 0
-142 -141 0
142 -44 141 0
-143 -44 0
-143 141 0
143 44 -141 0
-144 118 0
-144 -143 0
144 -118 143 0
-145 -142 0
-145 -144 0
145 142 144 0
-146 39 0
-146 -145 0
146 -39 145 0
-147 -92 0
-147 -96 0
147 92 96 0
-148 113 0
-148 147 0
148 -113 -147 0
-149 -95 0
-149 -148 0
149 95 148 0
-150 95 0
-150 148 0
150 -95 -148 0
-151 -149 0
-151 -150 0
151 149 150 0
-152 -39 0
-152 145 0
152 39 -145 0
-153 151 0
-153 -152 0
153 -151 152 0
-154 -146 0
-154 -153 0
154 146 153 0
-155 34 0
-155 -154 0
155 -34 154 0
-156 -99 0
-156 -103 0
156 99 103 0
-157 113 0
-157 156 0
157 -113 -156 0
-158 -102 0
-158 -157 0
158 102 157 0
-159 102 0
-159 157 0
159 -102 -157 0
-160 -158 0
-160 -159 0
160 158 159 0
-161 -34 0
-161 154 0
161 34 -154 0
-162 160 0
-162 -161 0
162 -160 161 0
-163 -155 0
-163 -162 0
163 155 162 0
-164 -29 0
-164 -163 0
164 29 163 0
-165 -106 0
-165 -110 0
165 106 110 0
-166 113 0
-166 165 0
166 -113 -165 0
-167 -109 0
-167 -166 0
167 109 166 0
-168 109 0
-168 166 0
168 -109 -166 0
-169 -167 0
-169 -168 0
169 167 168 0
-170 29 0
-170 163 0
170 -29 -163 0
-171 169 0
-171 -170 0
171 -169 170 0
-172 -164 0
-172 -171 0
172 164 171 0
-173 -142 0
-173 -143 0
173 142 143 0
-174 -172 0
-174 173 0
174 172 -173 0
-175 -118 0
-175 -174 0
175 118 174 0
-176 118 0
-176 174 0
176 -118 -174 0
-177 -175 0
-177 -176 0
177 175 176 0
-178 -164 0
-178 -170 0
178 164 170 0
-179 169 0
-179 -178 0
179 -169 178 0
-180 12 0
-180 -56 0
180 -12 56 0
-181 -57 0
-181 -180 0
181 57 180 0
-182 9 0
-182 181 0
182 -9 -181 0
-183 -9 0
-183 12 0
183 9 -12 0
-184 -182 0
-184 -183 0
184 182 183 0
-185 2 0
-185 184 0
185 -2 -184 0
-186 54 0
-186 -185 0
186 -54 185 0
-187 2 0
-187 -172 0
187 -2 172 0
-188 123 0
-188 -187 0
188 -123 187 0
-189 -123 0
-189 187 0
189 123 -187 0
-190 -188 0
-190 -189 0
190 188 189 0
-191 -54 0
-191 185 0
191 54 -185 0
-192 190 0
-192 -191 0
192 -190 191 0
-193 -186 0
-193 -192 0
193 186 192 0
-194 49 0
-194 -193 0
194 -49 193 0
-195 -125 0
-195 -130 0
195 125 130 0
-196 -172 0
-196 195 0
196 172 -195 0
-197 -129 0
-197 -196 0
197 129 196 0
-198 129 0
-198 196 0
198 -129 -196 0
-199 -197 0
-199 -198 0
199 197 198 0
-200 -49 0
-200 193 0
200 49 -193 0
-201 199 0
-201 -200 0
201 -199 200 0
-202 -194 0
-202 -201 0
202 194 201 0
-203 44 0
-203 -202 0
203 -44 202 0
-204 -133 0
-204 -139 0
204 133 139 0
-205 -172 0
-205 204 0
205 172 -204 0
-206 -138 0
-206 -205 0
206 138 205 0
-207 138 0
-207 205 0
207 -138 -205 0
-208 -206 0
-208 -207 0
208 206 207 0
-209 -44 0
-209 202 0
209 44 -202 0
-210 208 0
-210 -209 0
210 -208 209 0
-211 -203 0
-211 -210 0
211 203 210 0
-212 39 0
-212 -211 0
212 -39 211 0
-213 -39 0
-213 211 0
213 39 -211 0
-214 177 0
-214 -213 0
214 -177 213 0
-215 -212 0
-215 -214 0
215 212 214 0
-216 34 0
-216 -215 0
216 -34 215 0
-217 -146 0
-217 -152 0
217 146 152 0
-218 -172 0
-218 217 0
218 172 -217 0
-219 -151 0
-219 -218 0
219 151 218 0
-220 151 0
-220 218 0
220 -151 -218 0
-221 -219 0
-221 -220 0
221 219 220 0
-222 -34 0
-222 215 0
222 34 -215 0
-223 221 0
-223 -222 0
223 -221 222 0
-224 -216 0
-224 -223 0
224 216 223 0
-225 -29 0
-225 -224 0
225 29 224 0
-226 -155 0
-226 -161 0
226 155 161 0
-227 -172 0
-227 226 0
227 172 -226 0
-228 -160 0
-228 -227 0
228 160 227 0
-229 160 0
-229 227 0
229 -160 -227 0
-230 -228 0
-230 -229 0
230 228 229 0
-231 29 0
-231 224 0
231 -29 -224 0
-232 230 0
-232 -231 0
232 -230 231 0
-233 -225 0
-233 -232 0
233 225 232 0
-234 -179 0
-234 233 0
234 179 -233 0
-235 -212 0
-235 -213 0
235 212 213 0
-236 -234 0
-236 235 0
236 234 -235 0
-237 -177 0
-237 -236 0
237 177 236 0
-238 177 0
-238 236 0
238 -177 -236 0
-239 -237 0
-239 -238 0
239 237 238 0
-240 -225 0
-240 -231 0
240 225 231 0
-241 -234 0
-241 240 0
241 234 -240 0
-242 -230 0
-242 -241 0
242 230 241 0
-243 230 0
-243 241 0
243 -230 -241 0
-244 -242 0
-244 -243 0
244 242 243 0
-245 13 0
-245 -55 0
245 -13 55 0
-246 -56 0
-246 -245 0
246 56 245 0
-247 9 0
-247 246 0
247 -9 -246 0
-248 -9 0
-248 13 0
248 9 -13 0
-249 -247 0
-249 -248 0
249 247 248 0
-250 2 0
-250 249 0
250 -2 -249 0
-251 54 0
-251 -250 0
251 -54 250 0
-252 2 0
-252 -234 0
252 -2 234 0
-253 184 0
-253 -252 0
253 -184 252 0
-254 -184 0
-254 252 0
254 184 -252 0
-255 -253 0
-255 -254 0
255 253 254 0
-256 -54 0
-256 250 0
256 54 -250 0
-257 255 0
-257 -256 0
257 -255 256 0
-258 -251 0
-258 -257 0
258 251 257 0
-259 49 0
-259 -258 0
259 -49 258 0
-260 -186 0
-260 -191 0
260 186 191 0
-261 -234 0
-261 260 0
261 234 -260 0
-262 -190 0
-262 -261 0
262 190 261 0
-263 190 0
-263 261 0
263 -190 -261 0
-264 -262 0
-264 -263 0
264 262 263 0
-265 -49 0
-265 258 0
265 49 -258 0
-266 264 0
-266 -265 0
266 -264 265 0
-267 -259 0
-267 -266 0
267 259 266 0
-268 44 0
-268 -267 0
268 -44 267 0
-269 -194 0
-269 -200 0
269 194 200 0
-270 -234 0
-270 269 0
270 234 -269 0
-271 -199 0
-271 -270 0
271 199 270 0
-272 199 0
-272 270 0
272 -199 -270 0
-273 -271 0
-273 -272 0
273 271 272 0
-274 -44 0
-274 267 0
274 44 -267 0
-275 273 0
-275 -274 0
275 -273 274 0
-276 -268 0
-276 -275 0
276 268 275 0
-277 39 0
-277 -276 0
277 -39 276 0
-278 -203 0
-278 -209 0
278 203 209 0
-279 -234 0
-279 278 0
279 234 -278 0
-280 -208 0
-280 -279 0
280 208 279 0
-281 208 0
-281 279 0
281 -208 -279 0
-282 -280 0
-282 -281 0
282 280 281 0
-283 -39 0
-283 276 0
283 39 -276 0
-284 282 0
-284 -283 0
284 -282 283 0
-285 -277 0
-285 -284 0
285 277 284 0
-286 34 0
-286 -285 0
286 -34 285 0
-287 -34 0
-287 285 0
287 34 -285 0
-288 239 0
-288 -287 0
288 -239 287 0
-289 -286 0
-289 -288 0
289 286 288 0
-290 -29 0
-290 -289 0
290 29 289 0
-291 -216 0
-291 -222 0
291 216 222 0
-292 -234 0
-292 291 0
292 234 -291 0
-293 -221 0
-293 -292 0
293 221 292 0
-294 221 0
-294 292 0
294 -221 -292 0
-295 -293 0
-295 -294 0
295 293 294 0
-296 29 0
-296 289 0
296 -29 -289 0
-297 295 0
-297 -296 0
297 -295 296 0
-298 -290 0
-298 -297 0
298 290 297 0
-299 -244 0
-299 298 0
299 244 -298 0
-300 -286 0
-300 -287 0
300 286 287 0
-301 -299 0
-301 300 0
301 299 -300 0
-302 -239 0
-302 -301 0
302 239 301 0
-303 239 0
-303 301 0
303 -239 -301 0
-304 -302 0
-304 -303 0
304 302 303 0
-305 -290 0
-305 -296 0
305 290 296 0
-306 -299 0
-306 305 0
306 299 -305 0
-307 -295 0
-307 -306 0
307 295 306 0
-308 295 0
-308 306 0
308 -295 -306 0
-309 -307 0
-309 -308 0
309 307 308 0
-310 8 0
-310 14 0
310 -8 -14 0
-311 -55 0
-311 -310 0
311 55 310 0
-312 9 0
-312 311 0
312 -9 -311 0
-313 -9 0
-313 14 0
313 9 -14 0
-314 -312 0
-314 -313 0
314 312 313 0
-315 2 0
-315 314 0
315 -2 -314 0
-316 54 0
-316 -315 0
316 -54 315 0
-317 2 0
-317 -299 0
317 -2 299 0
-318 249 0
-318 -317 0
318 -249 317 0
-319 -249 0
-319 317 0
319 249 -317 0
-320 -318 0
-320 -319 0
320 318 319 0
-321 -54 0
-321 315 0
321 54 -315 0
-322 320 0
-322 -321 0
322 -320 321 0
-323 -316 0
-323 -322 0
323 316 322 0
-324 49 0
-324 -323 0
324 -49 323 0
-325 -251 0
-325 -256 0
325 251 256 0
-326 -299 0
-326 325 0
326 299 -325 0
-327 -255 0
-327 -326 0
327 255 326 0
-328 255 0
-328 326 0
328 -255 -326 0
-329 -327 0
-329 -328 0
329 327 328 0
-330 -49 0
-330 323 0
330 49 -323 0
-331 329 0
-331 -330 0
331 -329 330 0
-332 -324 0
-332 -331 0
332 324 331 0
-333 44 0
-333 -332 0
333 -44 332 0
-334 -259 0
-334 -265 0
334 259 265 0
-335 -299 0
-335 334 0
335 299 -334 0
-336 -264 0
-336 -335 0
336 264 335 0
-337 264 0
-337 335 0
337 -264 -335 0
-338 -336 0
-338 -337 0
338 336 337 0
-339 -44 0
-339 332 0
339 44 -332 0
-340 338 0
-340 -339 0
340 -338 339 0
-341 -333 0
-341 -340 0
341 333 340 0
-342 39 0
-342 -341 0
342 -39 341 0
-343 -268 0
-343 -274 0
343 268 274 0
-344 -299 0
-344 343 0
344 299 -343 0
-345 -273 0
-345 -344 0
345 273 344 0
-346 273 0
-346 344 0
346 -273 -344 0
-347 -345 0
-347 -346 0
347 345 346 0
-348 -39 0
-348 341 0
348 39 -341 0
-349 347 0
-349 -348 0
349 -347 348 0
-350 -342 0
-350 -349 0
350 342 349 0
-351 34 0
-351 -350 0
351 -34 350 0
-352 -277 0
-352 -283 0
352 277 283 0
-353 -299 0
-353 352 0
353 299 -352 0
-354 -282 0
-354 -353 0
354 282 353 0
-355 282 0
-355 353 0
355 -282 -353 0
-356 -354 0
-356 -355 0
356 354 355 0
-357 -34 0
-357 350 0
357 34 -350 0
-358 356 0
-358 -357 0
358 -356 357 0
-359 -351 0
-359 -358 0
359 351 358 0
-360 -29 0
-360 -359 0
360 29 359 0
-361 29 0
-361 359 0
361 -29 -359 0
-362 304 0
-362 -361 0
362 -304 361 0
-363 -360 0
-363 -362 0
363 360 362 0
-364 -309 0
-364 363 0
364 309 -363 0
-365 -360 0
-365 -361 0
365 360 361 0
-366 -364 0
-366 365 0
366 364 -365 0
-367 -304 0
-367 -366 0
367 304 366 0
-368 304 0
-368 366 0
368 -304 -366 0
-369 -367 0
-369 -368 0
369 367 368 0
-370 2 0
-370 -8 0
370 -2 8 0
-371 54 0
-371 -370 0
371 -54 370 0
-372 2 0
-372 -364 0
372 -2 364 0
-373 314 0
-373 -372 0
373 -314 372 0
-374 -314 0
-374 372 0
374 314 -372 0
-375 -373 0
-375 -374 0
375 373 374 0
-376 -54 0
-376 370 0
376 54 -370 0
-377 375 0
-377 -376 0
377 -375 376 0
-378 -371 0
-378 -377 0
378 371 377 0
-379 49 0
-379 -378 0
379 -49 378 0
-380 -316 0
-380 -321 0
380 316 321 0
-381 -364 0
-381 380 0
381 364 -380 0
-382 -320 0
-382 -381 0
382 320 381 0
-383 320 0
-383 381 0
383 -320 -381 0
-384 -382 0
-384 -383 0
384 382 383 0
-385 -49 0
-385 378 0
385 49 -378 0
-386 384 0
-386 -385 0
386 -384 385 0
-387 -379 0
-387 -386 0
387 379 386 0
-388 44 0
-388 -387 0
388 -44 387 0
-389 -324 0
-389 -330 0
389 324 330 0
-390 -364 0
-390 389 0
390 364 -389 0
-391 -329 0
-391 -390 0
391 329 390 0
-392 329 0
-392 390 0
392 -329 -390 0
-393 -391 0
-393 -392 0
393 391 392 0
-394 -44 0
-394 387 0
394 44 -387 0
-395 393 0
-395 -394 0
395 -393 394 0
-396 -388 0
-396 -395 0
396 388 395 0
-397 39 0
-397 -396 0
397 -39 396 0
-398 -333 0
-398 -339 0
398 333 339 0
-399 -364 0
-399 398 0
399 364 -398 0
-400 -338 0
-400 -399 0
400 338 399 0
-401 338 0
-401 399 0
401 -338 -399 0
-402 -400 0
-402 -401 0
402 400 401 0
-403 -39 0
-403 396 0
403 39 -396 0
-404 402 0
-404 -403 0
404 -402 403 0
-405 -397 0
-405 -404 0
405 397 404 0
-406 34 0
-406 -405 0
406 -34 405 0
-407 -342 0
-407 -348 0
407 342 348 0
-408 -364 0
-408 407 0
408 364 -407 0
-409 -347 0
-409 -408 0
409 347 408 0
-410 347 0
-410 408 0
410 -347 -408 0
-411 -409 0
-411 -410 0
411 409 410 0
-412 -34 0
-412 405 0
412 34 -405 0
-413 411 0
-413 -412 0
413 -411 412 0
-414 -406 0
-414 -413 0
414 406 413 0
-415 -29 0
-415 -414 0
415 29 414 0
-416 -351 0
-416 -357 0
416 351 357 0
-417 -364 0
-417 416 0
417 364 -416 0
-418 -356 0
-418 -417 0
418 356 417 0
-419 356 0
-419 417 0
419 -356 -417 0
-420 -418 0
-420 -419 0
420 418 419 0
-421 29 0
-421 414 0
421 -29 -414 0
-422 420 0
-422 -421 0
422 -420 421 0
-423 -415 0
-423 -422 0
423 415 422 0
-424 -369 0
-424 423 0
424 369 -423 0
-425 2 0
-425 -424 0
425 -2 424 0
-426 8 0
-426 425 0
426 -8 -425 0
-427 -8 0
-427 -425 0
427 8 425 0
-428 -426 0
-428 -427 0
428 426 427 0
429 -2 428 0
-430 3 0
-430 -424 0
430 -3 424 0
-431 -1 0
-431 -9 0
431 1 9 0
-432 1 0
-432 9 0
432 -1 -9 0
-433 -431 0
-433 -432 0
433 431 432 0
-434 364 0
-434 424 0
434 -364 -424 0
-435 -364 0
-435 -424 0
435 364 424 0
-436 -434 0
-436 -435 0
436 434 435 0
-437 433 0
-437 436 0
437 -433 -436 0
-438 -364 0
-438 -433 0
438 364 433 0
-439 -437 0
-439 -438 0
439 437 438 0
-440 2 0
-440 -439 0
440 -2 439 0
-441 430 0
-441 440 0
441 -430 -440 0
-442 4 0
-442 -424 0
442 -4 424 0
-443 3 0
-443 -439 0
443 -3 439 0
-444 442 0
-444 443 0
444 -442 -443 0
-445 -442 0
-445 -443 0
445 442 443 0
-446 -444 0
-446 -445 0
446 444 445 0
-447 441 0
-447 446 0
447 -441 -446 0
-448 -441 0
-448 -446 0
448 441 446 0
-449 -447 0
-449 -448 0
449 447 448 0
-450 299 0
-450 434 0
450 -299 -434 0
-451 -299 0
-451 -434 0
451 299 434 0
-452 -450 0
-452 -451 0
452 450 451 0
-453 433 0
-453 452 0
453 -433 -452 0
-454 -299 0
-454 -433 0
454 299 433 0
-455 -453 0
-455 -454 0
455 453 454 0
-456 2 0
-456 -455 0
456 -2 455 0
-457 449 0
-457 456 0
457 -449 -456 0
-458 -444 0
-458 -447 0
458 444 447 0
-459 5 0
-459 -424 0
459 -5 424 0
-460 4 0
-460 -439 0
460 -4 439 0
-461 459 0
-461 460 0
461 -459 -460 0
-462 -459 0
-462 -460 0
462 459 460 0
-463 -461 0
-463 -462 0
463 461 462 0
-464 -458 0
-464 463 0
464 458 -463 0
-465 458 0
-465 -463 0
465 -458 463 0
-466 -464 0
-466 -465 0
466 464 465 0
-467 3 0
-467 -455 0
467 -3 455 0
-468 466 0
-468 467 0
468 -466 -467 0
-469 -466 0
-469 -467 0
469 466 467 0
-470 -468 0
-470 -469 0
470 468 469 0
-471 457 0
-471 470 0
471 -457 -470 0
-472 -457 0
-472 -470 0
472 457 470 0
-473 -471 0
-473 -472 0
473 471 472 0
-474 234 0
-474 450 0
474 -234 -450 0
-475 -234 0
-475 -450 0
475 234 450 0
-476 -474 0
-476 -475 0
476 474 475 0
-477 433 0
-477 476 0
477 -433 -476 0
-478 -234 0
-478 -433 0
478 234 433 0
-479 -477 0
-479 -478 0
479 477 478 0
-480 2 0
-480 -479 0
480 -2 479 0
-481 473 0
-481 480 0
481 -473 -480 0
-482 -468 0
-482 -471 0
482 468 471 0
-483 -461 0
-483 -464 0
483 461 464 0
-484 6 0
-484 -424 0
484 -6 424 0
-485 5 0
-485 -439 0
485 -5 439 0
-486 484 0
-486 485 0
486 -484 -485 0
-487 -484 0
-487 -485 0
487 484 485 0
-488 -486 0
-488 -487 0
488 486 487 0
-489 -483 0
-489 488 0
489 483 -488 0
-490 483 0
-490 -488 0
490 -483 488 0
-491 -489 0
-491 -490 0
491 489 490 0
-492 4 0
-492 -455 0
492 -4 455 0
-493 491 0
-493 492 0
493 -491 -492 0
-494 -491 0
-494 -492 0
494 491 492 0
-495 -493 0
-495 -494 0
495 493 494 0
-496 -482 0
-496 495 0
496 482 -495 0
-497 482 0
-497 -495 0
497 -482 495 0
-498 -496 0
-498 -497 0
498 496 497 0
-499 3 0
-499 -479 0
499 -3 479 0
-500 498 0
-500 499 0
500 -498 -499 0
-501 -498 0
-501 -499 0
501 498 499 0
-502 -500 0
-502 -501 0
502 500 501 0
-503 481 0
-503 502 0
503 -481 -502 0
-504 -481 0
-504 -502 0
504 481 502 0
-505 -503 0
-505 -504 0
505 503 504 0
-506 172 0
-506 474 0
506 -172 -474 0
-507 -172 0
-507 -474 0
507 172 474 0
-508 -506 0
-508 -507 0
508 506 507 0
-509 433 0
-509 508 0
509 -433 -508 0
-510 -172 0
-510 -433 0
510 172 433 0
-511 -509 0
-511 -510 0
511 509 510 0
-512 2 0
-512 -511 0
512 -2 511 0
-513 505 0
-513 512 0
513 -505 -512 0
-514 -500 0
-514 -503 0
514 500 503 0
-515 -493 0
-515 -496 0
515 493 496 0
-516 -486 0
-516 -489 0
516 486 489 0
-517 7 0
-517 -424 0
517 -7 424 0
-518 6 0
-518 -439 0
518 -6 439 0
-519 517 0
-519 518 0
519 -517 -518 0
-520 -517 0
-520 -518 0
520 517 518 0
-521 -519 0
-521 -520 0
521 519 520 0
-522 -516 0
-522 521 0
522 516 -521 0
-523 516 0
-523 -521 0
523 -516 521 0
-524 -522 0
-524 -523 0
524 522 523 0
-525 5 0
-525 -455 0
525 -5 455 0
-526 524 0
-526 525 0
526 -524 -525 0
-527 -524 0
-527 -525 0
527 524 525 0
-528 -526 0
-528 -527 0
528 526 527 0
-529 -515 0
-529 528 0
529 515 -528 0
-530 515 0
-530 -528 0
530 -515 528 0
-531 -529 0
-531 -530 0
531 529 530 0
-532 4 0
-532 -479 0
532 -4 479 0
-533 531 0
-533 532 0
533 -531 -532 0
-534 -531 0
-534 -532 0
534 531 532 0
-535 -533 0
-535 -534 0
535 533 534 0
-536 -514 0
-536 535 0
536 514 -535 0
-537 514 0
-537 -535 0
537 -514 535 0
-538 -536 0
-538 -537 0
538 536 537 0
-539 3 0
-539 -511 0
539 -3 511 0
-540 538 0
-540 539 0
540 -538 -539 0
-541 -538 0
-541 -539 0
541 538 539 0
-542 -540 0
-542 -541 0
542 540 541 0
-543 513 0
-543 542 0
543 -513 -542 0
-544 -513 0
-544 -542 0
544 513 542 0
-545 -543 0
-545 -544 0
545 543 544 0
-546 -113 0
-546 506 0
546 113 -506 0
-547 113 0
-547 -506 0
547 -113 506 0
-548 -546 0
-548 -547 0
548 546 547 0
-549 433 0
-549 548 0
549 -433 -548 0
-550 113 0
-550 -433 0
550 -113 433 0
-551 -549 0
-551 -550 0
551 549 550 0
-552 2 0
-552 -551 0
552 -2 551 0
-553 545 0
-553 552 0
553 -545 -552 0
-554 -545 0
-554 -552 0
554 545 552 0
-555 -553 0
-555 -554 0
555 553 554 0
-556 -505 0
-556 -512 0
556 505 512 0
-557 -513 0
-557 -556 0
557 513 556 0
-558 -473 0
-558 -480 0
558 473 480 0
-559 -481 0
-559 -558 0
559 481 558 0
-560 -449 0
-560 -456 0
560 449 456 0
-561 -457 0
-561 -560 0
561 457 560 0
-562 -430 0
-562 -440 0
562 430 440 0
-563 -441 0
-563 -562 0
563 441 562 0
-564 -425 0
-564 -563 0
564 425 563 0
-565 -561 0
-565 564 0
565 561 -564 0
-566 -559 0
-566 565 0
566 559 -565 0
-567 -557 0
-567 566 0
567 557 -566 0
-568 -555 0
-568 567 0
568 555 -567 0
-569 555 0
-569 -567 0
569 -555 567 0
-570 -568 0
-570 -569 0
570 568 569 0
-571 10 0
-571 570 0
571 -10 -570 0
-572 557 0
-572 -566 0
572 -557 566 0
-573 -567 0
-573 -572 0
573 567 572 0
-574 11 0
-574 573 0
574 -11 -573 0
-575 559 0
-575 -565 0
575 -559 565 0
-576 -566 0
-576 -575 0
576 566 575 0
-577 12 0
-577 576 0
577 -12 -576 0
-578 561 0
-578 -564 0
578 -561 564 0
-579 -565 0
-579 -578 0
579 565 578 0
-580 13 0
-580 579 0
580 -13 -579 0
-581 425 0
-581 563 0
581 -425 -563 0
-582 -564 0
-582 -581 0
582 564 581 0
-583 14 0
-583 582 0
583 -14 -582 0
-584 -14 0
-584 -582 0
584 14 582 0
-585 -583 0
-585 -584 0
585 583 584 0
-586 426 0
-586 585 0
586 -426 -585 0
-587 -583 0
-587 -586 0
587 583 586 0
-588 -13 0
-588 -579 0
588 13 579 0
-589 -580 0
-589 -588 0
589 580 588 0
-590 -587 0
-590 589 0
590 587 -589 0
-591 -580 0
-591 -590 0
591 580 590 0
-592 -12 0
-592 -576 0
592 12 576 0
-593 -577 0
-593 -592 0
593 577 592 0
-594 -591 0
-594 593 0
594 591 -593 0
-595 -577 0
-595 -594 0
595 577 594 0
-596 -11 0
-596 -573 0
596 11 573 0
-597 -574 0
-597 -596 0
597 574 596 0
-598 -595 0
-598 597 0
598 595 -597 0
-599 -574 0
-599 -598 0
599 574 598 0
-600 -10 0
-600 -570 0
600 10 570 0
-601 -571 0
-601 -600 0
601 571 600 0
-602 -599 0
-602 601 0
602 599 -601 0
-603 -571 0
-603 -602 0
603 571 602 0
-604 -540 0
-604 -543 0
604 540 543 0
-605 -533 0
-605 -536 0
605 533 536 0
-606 -526 0
-606 -529 0
606 526 529 0
-607 -519 0
-607 -522 0
607 519 522 0
-608 1 0
-608 -424 0
608 -1 424 0
-609 7 0
-609 -439 0
609 -7 439 0
-610 608 0
-610 609 0
610 -608 -609 0
-611 -608 0
-611 -609 0
611 608 609 0
-612 -610 0
-612 -611 0
612 610 611 0
-613 -607 0
-613 612 0
613 607 -612 0
-614 607 0
-614 -612 0
614 -607 612 0
-615 -613 0
-615 -614 0
615 613 614 0
-616 6 0
-616 -455 0
616 -6 455 0
-617 615 0
-617 616 0
617 -615 -616 0
-618 -615 0
-618 -616 0
618 615 616 0
-619 -617 0
-619 -618 0
619 617 618 0
-620 -606 0
-620 619 0
620 606 -619 0
-621 606 0
-621 -619 0
621 -606 619 0
-622 -620 0
-622 -621 0
622 620 621 0
-623 5 0
-623 -479 0
623 -5 479 0
-624 622 0
-624 623 0
624 -622 -623 0
-625 -622 0
-625 -623 0
625 622 623 0
-626 -624 0
-626 -625 0
626 624 625 0
-627 -605 0
-627 626 0
627 605 -626 0
-628 605 0
-628 -626 0
628 -605 626 0
-629 -627 0
-629 -628 0
629 627 628 0
-630 4 0
-630 -511 0
630 -4 511 0
-631 629 0
-631 630 0
631 -629 -630 0
-632 -629 0
-632 -630 0
632 629 630 0
-633 -631 0
-633 -632 0
633 631 632 0
-634 -604 0
-634 633 0
634 604 -633 0
-635 604 0
-635 -633 0
635 -604 633 0
-636 -634 0
-636 -635 0
636 634 635 0
-637 3 0
-637 -551 0
637 -3 551 0
-638 636 0
-638 637 0
638 -636 -637 0
-639 -636 0
-639 -637 0
639 636 637 0
-640 -638 0
-640 -639 0
640 638 639 0
-641 553 0
-641 640 0
641 -553 -640 0
-642 -553 0
-642 -640 0
642 553 640 0
-643 -641 0
-643 -642 0
643 641 642 0
-644 -70 0
-644 546 0
644 70 -546 0
-645 70 0
-645 -546 0
645 -70 546 0
-646 -644 0
-646 -645 0
646 644 645 0
-647 433 0
-647 646 0
647 -433 -646 0
-648 70 0
-648 -433 0
648 -70 433 0
-649 -647 0
-649 -648 0
649 647 648 0
-650 2 0
-650 -649 0
650 -2 649 0
-651 643 0
-651 650 0
651 -643 -650 0
-652 -643 0
-652 -650 0
652 643 650 0
-653 -651 0
-653 -652 0
653 651 652 0
-654 568 0
-654 -653 0
654 -568 653 0
-655 -568 0
-655 653 0
655 568 -653 0
-656 -654 0
-656 -655 0
656 654 655 0
-657 9 0
-657 656 0
657 -9 -656 0
-658 -9 0
-658 -656 0
658 9 656 0
-659 -657 0
-659 -658 0
659 657 658 0
-660 -603 0
-660 659 0
660 603 -659 0
-661 603 0
-661 -659 0
661 -603 659 0
-662 -660 0
-662 -661 0
662 660 661 0
-663 -426 0
-663 -585 0
663 426 585 0
-664 -586 0
-664 -663 0
664 586 663 0
-665 -428 0
-665 -664 0
665 428 664 0
666 -428 -664 0
-667 -665 0
-667 -666 0
-668 662 0
-668 667 0
-669 -662 0
-669 664 0
670 668 669 0
-671 54 0
-671 -670 0
672 -429 671 0
673 54 -670 0
-674 -672 0
-674 -673 0
-675 587 0
-675 -589 0
675 -587 589 0
-676 -590 0
-676 -675 0
676 590 675 0
-677 665 0
-677 -676 0
677 -665 676 0
678 665 -676 0
-679 -677 0
-679 -678 0
-680 662 0
-680 679 0
-681 -662 0
-681 676 0
682 680 681 0
-683 49 0
-683 -682 0
684 674 683 0
685 49 -682 0
-686 -684 0
-686 -685 0
-687 591 0
-687 -593 0
687 -591 593 0
-688 -594 0
-688 -687 0
688 594 687 0
-689 677 0
-689 -688 0
689 -677 688 0
690 677 -688 0
-691 -689 0
-691 -690 0
-692 662 0
-692 691 0
-693 -662 0
-693 688 0
694 692 693 0
-695 44 0
-695 -694 0
696 686 695 0
697 44 -694 0
-698 -696 0
-698 -697 0
-699 595 0
-699 -597 0
699 -595 597 0
-700 -598 0
-700 -699 0
700 598 699 0
-701 689 0
-701 -700 0
701 -689 700 0
702 689 -700 0
-703 -701 0
-703 -702 0
-704 662 0
-704 703 0
-705 -662 0
-705 700 0
706 704 705 0
-707 39 0
-707 -706 0
708 698 707 0
709 39 -706 0
-710 -708 0
-710 -709 0
-711 599 0
-711 -601 0
711 -599 601 0
-712 -602 0
-712 -711 0
712 602 711 0
-713 701 0
-713 -712 0
713 -701 712 0
714 701 -712 0
-715 -713 0
-715 -714 0
-716 662 0
-716 715 0
-717 -662 0
-717 712 0
718 716 717 0
-719 34 0
-719 -718 0
720 710 719 0
721 34 -718 0
-722 -720 0
-722 -721 0
723 662 -713 0
724 -662 713 0
-725 -723 0
-725 -724 0
-726 662 0
-726 725 0
-727 -29 0
-727 726 0
728 722 727 0
729 -29 726 0
-730 -728 0
-730 -729 0
-731 -20 0
-731 730 0
731 0
